
List of user-set options:

                                    Name   Value                used
                           compl_inf_tol = 1                     yes
                         constr_viol_tol = 1                     yes
                            dual_inf_tol = 1000                  yes
                           linear_solver = ma97                  yes
                              ma86_small = 1e-30                  no
                                  ma86_u = 0.0001                 no
                              ma97_order = best                  yes
                              ma97_small = 1e-30                 yes
                            ma97_switch1 = at_start              yes
                            ma97_switch2 = od_hd_reuse           yes
                                  ma97_u = 1e-06                 yes
                               ma97_umax = 0.5                   yes
                                max_iter = 1000                  yes
                    max_refinement_steps = 20                    yes
                    min_refinement_steps = 5                     yes
                                 mu_init = 1e-06                 yes
           mu_superlinear_decrease_power = 1.25                  yes
                   nlp_scaling_min_value = 1e-08                 yes
                        option_file_name = Preset_Case_787_pf.opt  yes
                             output_file = ./tmp/Preset_Case_787_pf.output  yes
                      print_user_options = yes                   yes
        required_infeasibility_reduction = 1                      no
                                     tol = 1e-08                 yes
                   warm_start_bound_frac = 1e-20                 yes
                   warm_start_bound_push = 1e-20                 yes
                   warm_start_init_point = yes                   yes
              warm_start_mult_bound_push = 1e-20                 yes
                warm_start_mult_init_max = 1e+40                 yes
             warm_start_slack_bound_frac = 1e-20                 yes
             warm_start_slack_bound_push = 1e-20                 yes

******************************************************************************
This program contains Ipopt, a library for large-scale nonlinear optimization.
 Ipopt is released as open source code under the Eclipse Public License (EPL).
         For more information visit http://projects.coin-or.org/Ipopt
******************************************************************************

This is Ipopt version 3.12.10, running with linear solver ma97.

Number of nonzeros in equality constraint Jacobian...:   123442
Number of nonzeros in inequality constraint Jacobian.:      213
Number of nonzeros in Lagrangian Hessian.............:    49069

Total number of variables............................:    31591
                     variables with only lower bounds:    12912
                variables with lower and upper bounds:    15130
                     variables with only upper bounds:        0
Total number of equality constraints.................:    31483
Total number of inequality constraints...............:       25
        inequality constraints with only lower bounds:        4
   inequality constraints with lower and upper bounds:        0
        inequality constraints with only upper bounds:       21

iter    objective    inf_pr   inf_du lg(mu)  ||d||  lg(rg) alpha_du alpha_pr  ls
   0 -5.3421642e+00 4.05e-03 1.02e+00  -6.0 0.00e+00    -  0.00e+00 0.00e+00   0
   1 -5.3477157e+00 8.64e+00 3.36e+01  -6.0 3.56e+05    -  9.04e-05 1.27e-03h  1
   2 -5.3476775e+00 8.64e+00 3.36e+01  -6.0 2.34e+03    -  1.14e-04 3.29e-05h  1
   3 -5.3437382e+00 8.63e+00 5.76e+01  -6.0 2.11e+04    -  8.92e-05 1.42e-03h  1
   4 -5.3435672e+00 8.63e+00 1.09e+02  -6.0 6.76e+04    -  1.73e-01 2.07e-04h  6
   5 -5.3425196e+00 8.62e+00 1.09e+02  -6.0 8.74e+03    -  5.50e-04 5.58e-04h  5
   6 -5.3416604e+00 8.62e+00 1.10e+02  -6.0 3.48e+03    -  2.77e-03 7.58e-04h  8
   7 -5.3415534e+00 8.62e+00 1.10e+02  -6.0 3.48e+03    -  1.79e-03 9.47e-05h 13
   8 -5.3415265e+00 8.62e+00 1.14e+02  -6.0 3.49e+03    -  7.23e-03 2.39e-05h 15
   9 -5.3415126e+00 8.62e+00 1.15e+02  -6.0 3.48e+03    -  1.89e-03 1.23e-05h 16
iter    objective    inf_pr   inf_du lg(mu)  ||d||  lg(rg) alpha_du alpha_pr  ls
  10 -5.3379934e+00 8.58e+00 1.23e+02  -6.0 3.49e+03    -  2.46e-02 4.03e-03H  1
  11 -5.3376471e+00 8.58e+00 1.23e+02  -6.0 3.49e+03    -  1.10e-05 3.12e-04h  1
  12 -5.3376352e+00 8.58e+00 1.26e+02  -6.0 3.44e+03    -  5.40e-03 1.50e-05H  1
  13 -5.3376351e+00 8.58e+00 1.26e+02  -6.0 3.50e+03    -  2.37e-05 6.23e-08h  2
  14 -5.2089662e+00 7.59e+00 4.78e+06  -6.0 3.42e+03    -  1.21e-07 1.15e-01h  3
  15r-5.2089662e+00 7.59e+00 9.99e+02   0.9 0.00e+00   4.0 0.00e+00 1.13e-09R  7
  16r-5.2146208e+00 7.59e+00 1.98e+03   0.9 6.45e+04    -  2.52e-07 5.59e-08f  1
  17 -5.2167990e+00 7.59e+00 2.50e+02  -6.0 2.53e+05    -  5.96e-06 2.29e-04h  3
  18 -5.2178364e+00 7.59e+00 2.50e+02  -6.0 2.10e+05    -  1.20e-02 3.55e-04h  3
  19 -5.2180709e+00 7.59e+00 2.50e+02  -6.0 1.22e+05    -  5.97e-04 1.72e-04h  6
iter    objective    inf_pr   inf_du lg(mu)  ||d||  lg(rg) alpha_du alpha_pr  ls
  20 -5.2183007e+00 7.59e+00 2.50e+02  -6.0 1.16e+05    -  8.09e-03 1.90e-04h  6
  21 -5.2185648e+00 7.59e+00 2.50e+02  -6.0 1.01e+05    -  1.04e-03 1.55e-04h  7
  22 -5.2357439e+00 1.53e+01 3.14e+04  -6.0 9.76e+04    -  5.57e-03 9.96e-03h  1
  23 -5.4029733e+00 9.68e+01 1.48e+06  -6.0 6.42e+04    -  5.01e-03 4.22e-02h  1
  24 -5.4054179e+00 9.67e+01 1.47e+06  -6.0 1.04e+05    -  1.44e-03 1.83e-03h  1
  25 -5.4094679e+00 9.54e+01 1.45e+06  -6.0 1.94e+04    -  1.63e-02 1.35e-02h  1
  26 -5.4049696e+00 9.23e+01 1.41e+06  -6.0 5.90e+03    -  1.62e-02 3.34e-02h  1
  27 -5.4028315e+00 9.08e+01 1.39e+06  -6.0 1.55e+04    -  6.10e-03 1.61e-02h  2
  28 -5.4026958e+00 9.04e+01 1.38e+06  -6.0 3.58e+04    -  8.98e-03 4.67e-03h  4
  29r-5.4026958e+00 9.04e+01 9.99e+02   1.7 0.00e+00   3.5 0.00e+00 2.32e-07R  2
iter    objective    inf_pr   inf_du lg(mu)  ||d||  lg(rg) alpha_du alpha_pr  ls
  30r-5.4200129e+00 9.04e+01 9.99e+02   1.7 3.58e+05    -  2.78e-07 3.49e-08f  1
  31 -5.4509834e+00 9.02e+01 4.09e+02  -6.0 2.17e+05    -  9.11e-05 1.62e-03h  1
  32 -5.4969742e+00 8.99e+01 7.51e+02  -6.0 1.39e+05    -  1.30e-04 3.78e-03h  1
  33 -5.5060639e+00 8.96e+01 7.96e+02  -6.0 6.23e+04    -  1.75e-02 3.27e-03f  1
  34 -5.5108572e+00 8.88e+01 8.77e+02  -6.0 6.84e+04    -  6.59e-03 9.25e-03h  1
  35r-5.5108572e+00 8.88e+01 9.99e+02   1.7 0.00e+00   3.0 0.00e+00 1.08e-08R  8
  36r-5.5140837e+00 8.88e+01 9.99e+02   1.7 2.62e+08    -  6.65e-07 1.57e-08f  1
  37 -5.5140779e+00 8.88e+01 1.64e+02  -6.0 3.39e+02    -  2.71e-03 3.09e-05h  1
  38 -5.5139424e+00 8.88e+01 1.74e+03  -6.0 3.53e+02    -  2.91e-03 3.08e-04h  1
  39 -5.5058875e+00 8.82e+01 6.11e+04  -6.0 3.14e+02    -  3.09e-05 6.49e-03h  1
iter    objective    inf_pr   inf_du lg(mu)  ||d||  lg(rg) alpha_du alpha_pr  ls
  40 -5.5049996e+00 8.81e+01 6.17e+04  -6.0 2.87e+02    -  6.79e-03 6.51e-04h  3
  41 -5.5042964e+00 8.81e+01 6.20e+04  -6.0 2.87e+02    -  4.30e-03 5.14e-04h  6
  42 -5.5042003e+00 8.81e+01 6.20e+04  -6.0 2.86e+02    -  1.65e-02 7.02e-05h  9
  43 -5.5041509e+00 8.81e+01 6.20e+04  -6.0 2.85e+02    -  4.28e-03 3.58e-05h 10
  44 -5.5041260e+00 8.81e+01 6.20e+04  -6.0 2.85e+02    -  7.40e-03 1.81e-05h 11
  45 -5.4778606e+00 8.64e+01 3.66e+05  -6.0 2.85e+02    -  6.41e-03 1.89e-02h  1
  46 -5.4556734e+00 8.50e+01 5.54e+05  -6.0 2.79e+02    -  6.61e-02 1.63e-02h  1
  47 -5.4543202e+00 8.49e+01 5.57e+05  -6.0 2.73e+02    -  5.79e-02 9.91e-04h  1
  48 -5.4545611e+00 8.49e+01 1.30e+06  -6.0 5.27e+02    -  1.83e-03 2.47e-04h  1
  49 -5.4568643e+00 8.47e+01 9.21e+06  -6.0 5.41e+02    -  2.18e-03 2.09e-03h  1
iter    objective    inf_pr   inf_du lg(mu)  ||d||  lg(rg) alpha_du alpha_pr  ls
  50 -5.2384470e+00 7.57e+01 4.66e+07  -6.0 2.72e+02    -  5.09e-02 1.06e-01h  1
  51 -4.7611598e+00 5.62e+01 3.31e+08  -6.0 2.47e+02    -  9.59e-02 2.58e-01h  1
  52 -4.7221246e+00 5.43e+01 3.24e+08  -6.0 1.97e+02    -  2.39e-01 3.44e-02h  1
  53 -4.3934013e+00 3.60e+01 6.87e+08  -6.0 1.92e+02    -  3.37e-01 3.36e-01h  1
  54 -4.3676740e+00 2.42e+01 1.07e+09  -6.0 1.28e+02    -  3.59e-01 3.30e-01h  1
  55 -4.6235736e+00 1.36e+01 1.98e+09  -6.0 7.50e+01    -  3.40e-01 4.38e-01h  1
  56 -5.3152710e+00 1.06e+01 8.56e+09  -6.0 1.64e+02    -  1.37e-01 3.26e-01h  1
  57r-5.3152710e+00 1.06e+01 1.00e+03   0.7 0.00e+00    -  0.00e+00 1.41e-07R  2
  58r-5.3032583e+00 1.06e+01 8.73e+03   0.7 1.84e+04    -  1.37e-06 5.70e-07f  1
  59 -5.3034925e+00 1.06e+01 3.17e+03  -6.0 1.98e+01    -  1.88e-04 2.11e-03h  1
iter    objective    inf_pr   inf_du lg(mu)  ||d||  lg(rg) alpha_du alpha_pr  ls
  60 -5.3041508e+00 1.05e+01 2.48e+03  -6.0 1.93e+01    -  2.13e-03 6.67e-03f  1
  61 -5.3042167e+00 1.05e+01 4.38e+03  -6.0 1.96e+01    -  1.04e-02 5.84e-04f  1
  62 -5.3041375e+00 1.05e+01 2.15e+05  -6.0 1.44e+01    -  5.88e-02 1.27e-03h  1
  63 -5.2994906e+00 1.04e+01 4.57e+05  -6.0 4.01e+01    -  2.60e-03 9.11e-03h  1
  64 -5.2813536e+00 9.99e+00 6.85e+06  -6.0 2.39e+01    -  2.31e-02 3.96e-02h  1
  65 -5.2492684e+00 9.29e+00 2.50e+07  -6.0 1.89e+01    -  2.32e-02 7.03e-02h  1
  66 -5.1478921e+00 5.89e+00 4.01e+08  -6.0 1.38e+01    -  7.06e-03 3.62e-01h  1
  67 -5.1476807e+00 5.45e+00 3.77e+08  -6.0 1.47e+01    -  4.89e-02 7.49e-02h  1
  68 -5.1790262e+00 2.57e+00 3.62e+08  -6.0 1.49e+01    -  8.95e-02 5.25e-01h  1
  69 -5.2014531e+00 2.33e+00 3.30e+08  -6.0 7.77e+00    -  5.55e-01 9.40e-02h  1
iter    objective    inf_pr   inf_du lg(mu)  ||d||  lg(rg) alpha_du alpha_pr  ls
  70 -5.2141199e+00 2.23e+00 3.26e+08  -6.0 1.70e+02    -  2.93e-05 4.27e-02h  1
  71 -5.2263907e+00 2.14e+00 3.14e+08  -6.0 1.12e+01    -  3.75e-01 4.05e-02h  1
  72 -5.2444362e+00 2.04e+00 3.01e+08  -6.0 1.45e+01    -  8.31e-01 4.50e-02h  1
  73 -5.2444353e+00 2.04e+00 3.01e+08  -6.0 1.60e+00   2.6 3.07e-05 2.43e-05h  1
  74 -5.2444492e+00 2.04e+00 3.01e+08  -6.0 1.85e+02    -  2.83e-01 1.28e-05h  1
  75 -5.2444470e+00 2.04e+00 3.01e+08  -6.0 4.46e+00   2.1 1.81e-06 4.26e-05h  1
  76 -5.2774085e+00 1.94e+00 2.72e+08  -6.0 7.54e+02    -  9.19e-09 5.08e-02f  1
  77 -5.2773853e+00 1.94e+00 2.72e+08  -6.0 9.58e-01   1.6 3.61e-06 4.01e-04h  1
  78 -5.2773172e+00 1.94e+00 2.72e+08  -6.0 9.65e-01   1.1 3.34e-04 1.68e-03h  1
  79 -5.2768641e+00 1.89e+00 2.65e+08  -6.0 9.09e-01   0.7 1.84e-02 2.36e-02h  1
iter    objective    inf_pr   inf_du lg(mu)  ||d||  lg(rg) alpha_du alpha_pr  ls
  80 -5.2768959e+00 1.87e+00 2.62e+08  -6.0 8.87e-01   0.2 2.58e-02 1.18e-02h  1
  81 -5.2839039e+00 9.87e-01 1.77e+08  -6.0 8.72e-01  -0.3 1.02e-01 4.73e-01h  1
  82 -5.2830632e+00 8.68e-01 1.56e+08  -6.0 5.35e-01   0.1 1.73e-01 1.21e-01h  1
  83 -5.2800492e+00 6.93e-01 1.25e+08  -6.0 4.93e-01   0.6 2.34e-01 2.02e-01h  1
  84 -5.2640750e+00 6.40e-01 1.15e+08  -6.0 2.30e+00   0.1 2.89e-02 7.63e-02h  1
  85 -5.2690096e+00 4.11e-02 1.63e+07  -6.0 3.46e-01  -0.4 1.19e-05 9.37e-01h  1
  86 -5.2715373e+00 4.08e-06 6.15e+04  -6.0 7.66e-02  -0.9 9.81e-01 1.00e+00h  1
  87 -5.2828970e+00 1.46e-04 9.54e+02  -6.0 1.68e-01  -1.4 8.90e-01 1.00e+00f  1
  88 -5.3231082e+00 8.66e-04 4.87e+01  -6.0 5.64e-01  -1.8 9.89e-01 9.55e-01f  1
  89 -5.3305691e+00 1.47e-03 1.71e+02  -6.0 1.79e+00  -2.3 1.00e+00 1.91e-01f  1
iter    objective    inf_pr   inf_du lg(mu)  ||d||  lg(rg) alpha_du alpha_pr  ls
  90 -5.3519929e+00 5.23e-03 1.24e+02  -6.0 4.48e+00  -2.8 4.37e-01 1.97e-01f  1
  91 -5.4236410e+00 5.07e-02 9.57e+01  -6.0 1.21e+01  -3.3 3.39e-01 2.43e-01f  1
  92 -5.5821129e+00 2.12e-01 1.73e+02  -6.0 1.49e+01  -3.7 3.52e-01 6.13e-01h  1
  93 -5.5938410e+00 2.07e-01 2.68e+02  -6.0 2.53e+01  -4.2 3.26e-01 3.20e-02h  1
  94 -5.6381268e+00 2.31e-01 2.13e+02  -6.0 3.80e+01  -4.7 3.71e-01 7.47e-02f  1
  95 -5.7358719e+00 3.53e-01 2.69e+02  -6.0 4.28e+01  -5.2 1.00e+00 1.65e-01h  1
  96 -5.7418496e+00 3.48e-01 2.66e+02  -6.0 5.56e+01  -5.6 4.07e-01 1.55e-02h  1
  97 -5.7987598e+00 3.08e-01 3.92e+02  -6.0 1.47e+02  -6.1 5.09e-01 1.49e-01h  1
  98 -5.8011598e+00 3.03e-01 5.39e+02  -6.0 2.16e+01  -4.8 3.72e-01 1.71e-02h  1
  99 -5.8112485e+00 2.83e-01 3.69e+02  -6.0 2.38e+01  -5.3 5.69e-01 6.68e-02h  1
iter    objective    inf_pr   inf_du lg(mu)  ||d||  lg(rg) alpha_du alpha_pr  ls
 100 -5.8215987e+00 4.16e-01 8.58e+02  -6.0 5.84e+01  -5.7 2.13e-01 4.80e-01h  1
 101 -5.8298579e+00 1.25e+00 8.11e+02  -6.0 3.11e+03    -  7.94e-02 7.73e-02h  1
 102 -5.8409975e+00 6.13e+00 6.79e+02  -6.0 3.33e+03    -  1.38e-01 1.46e-01h  1
 103 -5.8488978e+00 1.05e+01 5.77e+02  -6.0 3.53e+03    -  1.97e-01 1.43e-01h  1
 104 -5.8610917e+00 2.59e+01 4.02e+02  -6.0 3.46e+03    -  1.93e-01 2.75e-01h  1
 105 -5.8695495e+00 2.45e+01 3.04e+02  -6.0 2.00e+03    -  2.96e-01 2.81e-01h  1
 106 -5.8715913e+00 2.89e+01 2.84e+02  -6.0 1.08e+04    -  5.11e-02 8.15e-02h  1
 107 -5.8775656e+00 2.23e+01 2.59e+02  -6.0 4.84e+02    -  3.41e-01 2.35e-01h  1
 108 -5.8781935e+00 3.17e+01 3.68e+02  -6.0 4.74e+03    -  1.61e-01 1.97e-01h  1
 109 -5.8806266e+00 3.44e+01 1.23e+03  -6.0 3.74e+03    -  3.45e-01 1.63e-01h  1
iter    objective    inf_pr   inf_du lg(mu)  ||d||  lg(rg) alpha_du alpha_pr  ls
 110 -5.8833046e+00 6.92e+01 2.00e+03  -6.0 4.54e+03    -  4.40e-01 3.28e-01h  1
 111 -5.8841269e+00 7.02e+01 2.38e+04  -6.0 6.34e+03    -  3.91e-04 1.04e-01h  1
 112 -5.8843074e+00 6.91e+01 2.34e+04  -6.0 6.98e+03    -  1.42e-01 2.02e-02h  1
 113 -5.8855370e+00 7.70e+01 2.01e+04  -6.0 7.12e+03    -  2.77e-01 1.38e-01h  1
 114r-5.8855370e+00 7.70e+01 1.00e+03   1.8 0.00e+00    -  0.00e+00 2.76e-07R  5
 115r-5.8876969e+00 7.70e+01 1.00e+03   1.8 4.80e+06    -  7.32e-08 1.29e-08f  1
 116 -5.8877419e+00 7.70e+01 2.93e+02  -6.0 5.29e+04    -  4.42e-04 1.32e-05h  1
 117 -5.9030195e+00 7.60e+01 5.12e+02  -6.0 7.72e+04    -  9.26e-03 1.38e-02f  1
 118 -6.0511670e+00 7.53e+01 6.13e+02  -6.0 1.02e+05    -  1.09e-03 8.54e-03h  1
 119 -6.0633158e+00 7.47e+01 6.22e+02  -6.0 8.77e+03    -  1.44e-02 7.97e-03h  1
iter    objective    inf_pr   inf_du lg(mu)  ||d||  lg(rg) alpha_du alpha_pr  ls
 120 -6.0742353e+00 7.25e+01 8.62e+02  -6.0 4.15e+03    -  5.34e-03 3.15e-02h  1
 121 -6.0678103e+00 6.99e+01 6.58e+02  -6.0 2.29e+03    -  7.26e-02 3.62e-02h  1
 122 -6.0664530e+00 6.94e+01 1.50e+04  -6.0 2.40e+03    -  5.37e-01 7.91e-03h  1
 123 -5.9878244e+00 3.79e+01 9.06e+03  -6.0 4.02e+02    -  6.18e-02 4.55e-01h  1
 124 -5.9654758e+00 2.87e+01 1.62e+05  -6.0 3.67e+02    -  1.35e-03 2.42e-01h  1
 125 -5.9478379e+00 2.13e+01 1.27e+05  -6.0 5.31e+02    -  6.93e-01 2.63e-01h  1
 126 -5.9243651e+00 1.14e+01 6.24e+04  -6.0 8.12e+02    -  9.00e-01 4.94e-01h  1
 127r-5.9243651e+00 1.14e+01 1.00e+03   1.0 0.00e+00    -  0.00e+00 2.97e-07R  6
 128r-5.9355209e+00 1.14e+01 1.01e+03   1.0 6.66e+06    -  4.95e-07 2.68e-07f  1
 129 -5.9353044e+00 1.14e+01 1.69e+03  -6.0 4.60e+02    -  3.35e-06 5.67e-03h  1
iter    objective    inf_pr   inf_du lg(mu)  ||d||  lg(rg) alpha_du alpha_pr  ls
 130 -5.9328289e+00 1.06e+01 1.58e+03  -6.0 2.66e+02    -  5.87e-03 6.35e-02h  1
 131 -5.9262134e+00 8.74e+00 1.30e+03  -6.0 6.34e+01    -  3.44e-02 1.79e-01h  1
 132 -5.9211511e+00 7.29e+00 1.08e+03  -6.0 9.45e+00    -  2.17e-01 1.66e-01h  1
 133 -5.9087034e+00 3.75e+00 5.56e+02  -6.0 3.61e+00    -  2.36e-01 4.86e-01h  1
 134 -5.8953507e+00 7.06e-04 6.70e+01  -6.0 1.85e+00    -  6.70e-01 1.00e+00h  1
 135 -5.8954925e+00 5.92e-05 6.67e+00  -6.0 8.06e-01    -  9.89e-01 1.00e+00h  1
 136 -5.8977774e+00 7.80e-03 1.25e+01  -6.0 6.86e+01    -  6.30e-01 2.02e-01h  1
 137 -5.9068785e+00 1.46e-01 1.03e+02  -6.0 1.63e+02    -  5.36e-01 3.62e-01h  1
 138 -5.9068922e+00 1.45e-01 2.70e+05  -6.0 4.61e+01    -  9.41e-01 2.83e-03h  1
 139 -5.9096531e+00 1.44e-01 3.60e+04  -6.0 1.37e+02    -  5.91e-01 1.96e-01h  1
iter    objective    inf_pr   inf_du lg(mu)  ||d||  lg(rg) alpha_du alpha_pr  ls
 140 -5.9157076e+00 1.28e+00 1.03e+03  -6.0 2.66e+02    -  9.50e-01 1.00e+00h  1
 141 -5.9166690e+00 1.20e+00 7.51e+03  -6.0 1.18e+03    -  3.27e-01 9.22e-02h  1
 142 -5.9203363e+00 7.91e+00 2.82e+03  -6.0 1.48e+03    -  3.84e-01 4.52e-01h  1
 143 -5.9274166e+00 6.00e-01 1.09e+04  -6.0 1.42e+02  -5.3 1.90e-03 9.24e-01h  1
 144 -5.9309389e+00 2.94e-01 1.08e+04  -6.0 5.84e+01  -5.8 2.50e-02 5.10e-01h  1
 145 -5.9353282e+00 9.82e+00 3.74e+02  -6.0 9.38e+02    -  9.63e-01 8.23e-01h  1
 146 -5.9369771e+00 6.22e+00 2.87e+02  -6.0 4.39e+02    -  1.35e-01 4.18e-01h  1
 147 -5.9381742e+00 1.19e-02 5.25e+01  -6.0 1.66e+01  -6.3 7.55e-01 1.00e+00h  1
 148 -5.9404181e+00 7.99e-02 2.86e+01  -6.0 5.17e+01  -6.8 4.49e-01 1.00e+00h  1
 149 -5.9475002e+00 9.08e-01 6.63e+01  -6.0 1.98e+02  -7.2 3.01e-01 1.00e+00h  1
iter    objective    inf_pr   inf_du lg(mu)  ||d||  lg(rg) alpha_du alpha_pr  ls
 150 -5.9526223e+00 3.73e-01 1.54e+01  -6.0 9.36e+01  -6.8 9.79e-01 6.99e-01h  1
 151 -5.9658459e+00 1.25e+00 9.16e+00  -6.0 3.86e+02  -7.3 6.11e-01 5.12e-01h  1
 152 -6.0160016e+00 1.60e+01 2.05e+04  -6.0 2.56e+03  -7.8 1.39e-01 4.70e-01h  1
 153 -6.0195302e+00 1.53e+01 1.04e+04  -6.0 1.95e+03  -7.3 9.65e-02 4.56e-02h  1
 154 -6.0402468e+00 7.85e+00 4.73e+04  -6.0 2.39e+03    -  2.81e-01 5.34e-01h  1
 155 -6.0430349e+00 6.49e+00 5.71e+05  -6.0 1.03e+03    -  1.85e-02 1.73e-01h  1
 156 -6.0513216e+00 2.86e-01 6.79e+03  -6.0 1.01e+02  -6.0 1.55e-01 1.00e+00h  1
 157 -6.0578536e+00 8.36e-01 4.57e+03  -6.0 7.61e+02    -  8.68e-01 3.37e-01h  1
 158 -6.0724600e+00 1.17e+00 1.42e+03  -6.0 5.19e+02    -  1.00e+00 6.76e-01h  1
 159 -6.0689212e+00 1.03e-02 8.76e+02  -6.0 1.32e+01  -6.5 4.44e-01 1.00e+00h  1
iter    objective    inf_pr   inf_du lg(mu)  ||d||  lg(rg) alpha_du alpha_pr  ls
 160 -6.0770505e+00 1.00e+00 4.58e+02  -6.0 3.75e+02    -  3.92e-01 4.69e-01h  1
 161 -6.0747926e+00 1.15e+00 2.68e+02  -6.0 1.91e+02    -  2.10e-01 1.00e+00h  1
 162 -6.0753178e+00 7.31e-01 8.75e+00  -6.0 1.52e+02    -  1.00e+00 1.00e+00h  1
 163 -6.0732385e+00 3.92e-03 2.33e+01  -6.0 1.17e+01    -  7.53e-01 1.00e+00h  1
 164 -6.0732585e+00 1.59e-03 1.02e-02  -6.0 7.10e+00    -  1.00e+00 1.00e+00h  1
 165 -6.0732538e+00 4.26e-06 2.27e-05  -6.0 3.66e-01    -  1.00e+00 1.00e+00h  1
 166 -6.0732538e+00 3.95e-10 5.87e-11  -6.0 1.89e-04    -  1.00e+00 1.00e+00h  1
 167 -6.0733651e+00 2.99e+00 8.99e+00  -7.5 5.66e+02    -  8.11e-01 7.80e-01h  1
 168 -6.0733582e+00 6.89e-01 1.12e+01  -7.5 1.39e+02    -  1.00e+00 8.45e-01h  1
 169 -6.0733544e+00 6.00e-03 1.07e-02  -7.5 1.88e+01    -  1.00e+00 1.00e+00h  1
iter    objective    inf_pr   inf_du lg(mu)  ||d||  lg(rg) alpha_du alpha_pr  ls
 170 -6.0733543e+00 6.90e-06 1.24e-06  -7.5 6.67e-01    -  1.00e+00 1.00e+00h  1
 171 -6.0733543e+00 1.14e-08 2.27e-09  -7.5 2.69e-02    -  1.00e+00 1.00e+00h  1
 172 -6.0733558e+00 3.18e-03 9.12e-01  -9.0 1.72e+01    -  9.25e-01 8.26e-01h  1
 173 -6.0733560e+00 4.86e-05 1.73e-04  -9.0 1.75e+00    -  1.00e+00 1.00e+00h  1
 174 -6.0733560e+00 7.70e-06 1.63e-06  -9.0 6.98e-01    -  1.00e+00 1.00e+00h  1
 175 -6.0733560e+00 5.42e-07 1.12e-07  -9.0 1.85e-01    -  1.00e+00 1.00e+00h  1
 176 -6.0733560e+00 3.51e-09 7.27e-10  -9.0 1.49e-02    -  1.00e+00 1.00e+00h  1

Number of Iterations....: 176

                                   (scaled)                 (unscaled)
Objective...............:  -4.7448093943027203e+00   -6.0733560247074818e+00
Dual infeasibility......:   7.2726350677955256e-10    9.3089728867782726e-10
Constraint violation....:   2.8821096687121262e-09    3.5070115700364113e-09
Complementarity.........:   9.0925523370034198e-10    1.1638466991364378e-09
Overall NLP error.......:   2.8821096687121262e-09    3.5070115700364113e-09


Number of objective function evaluations             = 343
Number of objective gradient evaluations             = 177
Number of equality constraint evaluations            = 343
Number of inequality constraint evaluations          = 343
Number of equality constraint Jacobian evaluations   = 183
Number of inequality constraint Jacobian evaluations = 183
Number of Lagrangian Hessian evaluations             = 176
Total CPU secs in IPOPT (w/o function evaluations)   =    356.240
Total CPU secs in NLP function evaluations           =      7.036

EXIT: Optimal Solution Found.
